swarm_exploration/utils/lkh_mtsp_solver/resource/amtsp_3.atsp
NAME : amtsp
TYPE : ATSP
DIMENSION : 5
EDGE_WEIGHT_TYPE : EXPLICIT
EDGE_WEIGHT_FORMAT : FULL_MATRIX
EDGE_WEIGHT_SECTION
100000 -100000 100000 100000 100000 
100000 100000 139 131 100000 
0 0 100000 134 261 
0 0 134 100000 275 
-100000 100000 261 275 100000 
