swarm_exploration/utils/lkh_mtsp_solver/resource/amtsp_3.tour
NAME : amtsp.-99595.tour
COMMENT : Length = -99595
COMMENT : Found by LKH [Keld Helsgaun] Mon Jan 15 15:10:41 2024
TYPE : TOUR
DIMENSION : 3
TOUR_SECTION
1
2
3
-1
EOF
